c Reduced graph for DSJC125.1gb generated by Cyril Grelier
p edge 125 736
e 1 7
e 1 12
e 1 19
e 1 34
e 1 37
e 1 44
e 1 58
e 1 78
e 1 87
e 1 96
e 1 121
e 2 6
e 2 21
e 2 24
e 2 36
e 2 46
e 2 52
e 2 61
e 2 69
e 2 93
e 2 111
e 3 20
e 3 25
e 3 36
e 3 52
e 3 83
e 3 91
e 3 106
e 3 111
e 3 112
e 3 116
e 4 22
e 4 47
e 4 51
e 4 57
e 4 65
e 4 89
e 4 98
e 4 119
e 5 10
e 5 14
e 5 18
e 5 20
e 5 26
e 5 45
e 5 48
e 5 49
e 5 52
e 5 77
e 5 82
e 5 86
e 5 90
e 5 97
e 6 14
e 6 20
e 6 38
e 6 44
e 6 62
e 6 70
e 6 74
e 6 81
e 6 82
e 6 105
e 6 106
e 6 114
e 7 10
e 7 20
e 7 24
e 7 39
e 7 70
e 7 72
e 7 78
e 7 104
e 7 107
e 7 118
e 8 9
e 8 15
e 8 26
e 8 39
e 8 53
e 8 85
e 8 105
e 8 120
e 9 11
e 9 14
e 9 18
e 9 23
e 9 28
e 9 29
e 9 35
e 9 41
e 9 44
e 9 63
e 9 67
e 9 81
e 9 83
e 9 91
e 9 92
e 9 97
e 9 98
e 9 103
e 9 110
e 9 112
e 9 118
e 9 124
e 10 12
e 10 18
e 10 32
e 10 36
e 10 54
e 10 55
e 10 61
e 10 68
e 10 78
e 10 93
e 10 94
e 10 97
e 10 100
e 11 15
e 11 16
e 11 23
e 11 25
e 11 30
e 11 44
e 11 45
e 11 47
e 11 82
e 11 98
e 11 99
e 11 108
e 11 117
e 11 123
e 12 15
e 12 19
e 12 23
e 12 39
e 12 48
e 12 51
e 12 62
e 12 87
e 12 99
e 12 102
e 12 108
e 12 111
e 13 16
e 13 26
e 13 28
e 13 33
e 13 40
e 13 43
e 13 58
e 13 78
e 13 93
e 13 95
e 13 102
e 13 108
e 13 110
e 14 15
e 14 17
e 14 24
e 14 25
e 14 57
e 14 60
e 14 75
e 14 102
e 14 107
e 15 36
e 15 38
e 15 52
e 15 61
e 15 64
e 15 71
e 15 90
e 15 99
e 16 18
e 16 22
e 16 48
e 16 61
e 16 67
e 16 83
e 16 97
e 16 100
e 17 27
e 17 29
e 17 35
e 17 40
e 17 70
e 17 109
e 17 112
e 18 29
e 18 30
e 18 44
e 18 45
e 18 46
e 18 55
e 18 56
e 18 60
e 18 80
e 18 82
e 18 89
e 18 91
e 18 98
e 18 103
e 18 124
e 19 26
e 19 28
e 19 30
e 19 31
e 19 48
e 19 53
e 19 57
e 19 63
e 19 81
e 19 82
e 19 85
e 19 95
e 19 104
e 19 105
e 19 112
e 19 123
e 19 125
e 20 22
e 20 23
e 20 34
e 20 36
e 20 42
e 20 46
e 20 58
e 20 68
e 20 81
e 20 98
e 20 100
e 20 106
e 20 107
e 20 112
e 21 22
e 21 35
e 21 41
e 21 44
e 21 51
e 21 66
e 21 67
e 21 70
e 21 82
e 21 94
e 21 96
e 21 113
e 22 23
e 22 24
e 22 39
e 22 43
e 22 87
e 22 113
e 22 114
e 22 119
e 23 25
e 23 44
e 23 73
e 23 89
e 23 90
e 23 93
e 24 43
e 24 68
e 24 83
e 24 93
e 24 100
e 24 101
e 25 49
e 25 82
e 25 96
e 25 111
e 26 30
e 26 40
e 26 41
e 26 67
e 26 71
e 26 73
e 26 75
e 26 77
e 26 85
e 26 98
e 26 109
e 26 124
e 27 36
e 27 38
e 27 44
e 27 47
e 27 64
e 27 75
e 27 81
e 27 87
e 27 105
e 27 108
e 27 111
e 27 113
e 28 33
e 28 44
e 28 47
e 28 48
e 28 61
e 28 62
e 28 67
e 28 90
e 28 99
e 29 37
e 29 71
e 29 79
e 29 86
e 29 93
e 29 95
e 29 101
e 29 111
e 29 118
e 30 93
e 30 100
e 30 101
e 30 102
e 30 106
e 30 113
e 30 118
e 30 121
e 31 35
e 31 62
e 31 63
e 31 65
e 31 73
e 31 78
e 31 83
e 31 90
e 31 100
e 31 111
e 32 37
e 32 40
e 32 53
e 32 58
e 32 64
e 32 68
e 32 88
e 32 94
e 32 105
e 33 43
e 33 72
e 33 75
e 33 79
e 33 84
e 33 89
e 33 104
e 34 40
e 34 64
e 34 66
e 34 93
e 34 116
e 34 120
e 35 43
e 35 49
e 35 55
e 35 61
e 35 65
e 35 81
e 35 89
e 35 96
e 35 111
e 35 117
e 35 120
e 36 51
e 36 62
e 36 75
e 36 79
e 36 91
e 36 93
e 36 117
e 36 123
e 37 44
e 37 49
e 37 50
e 37 52
e 37 63
e 37 68
e 37 86
e 37 90
e 37 117
e 37 125
e 38 48
e 38 51
e 38 68
e 38 77
e 38 89
e 38 99
e 38 108
e 38 118
e 38 120
e 38 125
e 39 54
e 39 69
e 39 70
e 39 88
e 39 97
e 39 111
e 39 114
e 39 117
e 40 71
e 40 92
e 40 98
e 40 112
e 40 117
e 41 66
e 41 92
e 41 97
e 41 107
e 41 108
e 41 116
e 41 117
e 42 47
e 42 59
e 42 70
e 42 76
e 42 79
e 42 81
e 42 94
e 42 106
e 43 51
e 43 64
e 44 57
e 44 60
e 44 62
e 44 74
e 44 77
e 44 90
e 44 91
e 44 115
e 44 123
e 45 52
e 45 54
e 45 56
e 45 57
e 45 73
e 45 77
e 45 82
e 45 91
e 45 92
e 45 93
e 45 101
e 45 117
e 45 124
e 46 55
e 46 56
e 46 67
e 46 85
e 46 89
e 46 91
e 46 98
e 46 111
e 46 118
e 46 119
e 47 63
e 47 70
e 47 89
e 47 92
e 47 94
e 47 118
e 47 123
e 48 67
e 48 68
e 48 81
e 48 121
e 49 79
e 49 81
e 49 89
e 49 125
e 50 76
e 50 85
e 50 89
e 50 90
e 51 57
e 51 63
e 51 70
e 51 72
e 51 100
e 51 105
e 51 108
e 51 114
e 51 123
e 52 58
e 52 77
e 52 82
e 52 83
e 52 113
e 52 115
e 52 118
e 53 59
e 53 64
e 53 91
e 53 106
e 53 112
e 54 75
e 54 84
e 54 90
e 54 98
e 54 122
e 55 67
e 55 69
e 55 71
e 55 72
e 55 86
e 55 100
e 55 105
e 55 115
e 55 121
e 56 58
e 56 68
e 56 70
e 56 75
e 56 92
e 56 98
e 56 103
e 56 104
e 56 107
e 56 117
e 57 69
e 57 71
e 57 97
e 57 101
e 57 109
e 57 110
e 58 84
e 58 90
e 58 94
e 58 121
e 59 63
e 59 67
e 59 79
e 59 87
e 59 88
e 59 91
e 59 112
e 60 63
e 60 103
e 60 123
e 61 62
e 61 67
e 61 77
e 61 80
e 61 92
e 61 93
e 61 94
e 61 97
e 61 102
e 61 111
e 61 114
e 61 122
e 62 67
e 62 77
e 62 80
e 62 106
e 62 111
e 63 65
e 63 76
e 63 111
e 63 115
e 64 65
e 64 92
e 64 103
e 64 115
e 65 69
e 65 76
e 65 83
e 65 92
e 65 100
e 66 70
e 66 84
e 66 91
e 66 107
e 67 77
e 67 92
e 67 97
e 67 102
e 67 108
e 67 112
e 67 124
e 68 86
e 68 90
e 68 91
e 68 96
e 68 102
e 68 109
e 68 120
e 68 122
e 69 70
e 69 75
e 69 88
e 69 89
e 69 90
e 69 94
e 69 101
e 69 102
e 69 105
e 69 107
e 70 90
e 70 107
e 70 121
e 71 97
e 71 99
e 71 119
e 71 122
e 72 76
e 72 92
e 72 94
e 72 105
e 72 113
e 73 81
e 73 92
e 73 105
e 73 119
e 73 125
e 74 90
e 74 99
e 74 115
e 74 118
e 74 119
e 74 120
e 75 80
e 75 87
e 75 98
e 75 116
e 75 117
e 75 118
e 76 85
e 76 89
e 76 93
e 76 94
e 76 97
e 76 98
e 76 120
e 76 121
e 77 97
e 77 119
e 78 82
e 78 89
e 78 97
e 78 104
e 79 112
e 79 119
e 79 120
e 80 97
e 80 99
e 80 110
e 80 114
e 81 100
e 81 110
e 81 111
e 81 114
e 81 122
e 82 91
e 82 109
e 82 125
e 83 94
e 83 109
e 83 118
e 83 120
e 83 121
e 84 101
e 84 105
e 84 106
e 84 108
e 84 113
e 84 123
e 85 99
e 85 101
e 86 96
e 86 117
e 86 119
e 87 115
e 88 105
e 88 123
e 89 91
e 89 101
e 89 102
e 89 109
e 89 121
e 90 95
e 90 112
e 91 114
e 91 124
e 91 125
e 92 99
e 92 106
e 92 117
e 92 119
e 93 106
e 93 113
e 93 116
e 94 95
e 94 99
e 94 107
e 95 103
e 95 109
e 95 110
e 95 113
e 95 114
e 95 116
e 95 117
e 95 120
e 96 116
e 97 100
e 97 102
e 98 104
e 98 114
e 98 117
e 98 124
e 99 104
e 99 105
e 99 115
e 100 120
e 101 107
e 101 110
e 101 122
e 104 112
e 104 113
e 104 117
e 104 122
e 105 116
e 105 124
e 106 116
e 106 121
e 106 125
e 107 111
e 109 111
e 111 121
e 112 119
e 113 115
e 114 122
e 115 119
e 116 122
e 117 122
e 118 124
e 122 125
